NAME : lrc102.1558069.tour
COMMENT : Cost = 0_1558069
COMMENT : Found by LKH [Keld Helsgaun] Fri Sep 15 17:42:02 2017
TYPE : TOUR
DIMENSION : 118
TOUR_SECTION
1
93
96
63
30
31
33
104
90
112
66
84
20
24
49
19
22
26
78
106
116
37
45
41
39
42
44
36
38
73
105
118
34
29
28
27
32
35
51
94
95
81
108
15
48
16
17
10
88
98
76
103
59
115
92
65
100
87
58
75
60
53
111
70
89
54
79
11
14
18
13
117
83
12
74
80
8
56
101
71
114
40
72
68
85
57
67
109
86
64
77
52
23
50
21
25
110
3
46
2
4
6
9
102
7
47
5
61
99
113
43
62
82
91
69
55
97
107
-1
EOF
